K=2;
n=15;
m=44;
inf=10;
i= array1d(0..m-1,[12, 7, 5, 4, 4, 6, 8, 0, 9, 5, 11, 2, 11, 5, 9, 14, 13, 11, 7, 10, 6, 14, 4, 2, 3, 0, 9, 7, 5, 12, 11, 1, 11, 7, 1, 2, 0, 13, 13, 10, 8, 7, 9, 6]);
j= array1d(0..m-1,[7, 12, 4, 5, 6, 4, 0, 8, 5, 9, 2, 11, 5, 11, 14, 9, 11, 13, 10, 7, 14, 6, 2, 4, 0, 3, 7, 9, 12, 5, 1, 11, 7, 11, 2, 1, 13, 0, 10, 13, 7, 8, 6, 9]);
c= array1d(0..m-1,[4, 4, 90, 90, 56, 56, 34, 34, 55, 55, 43, 43, 39, 39, 33, 33, 22, 22, 81, 81, 76, 76, 54, 54, 30, 30, 76, 76, 68, 68, 35, 35, 41, 41, 97, 97, 5, 5, 66, 66, 24, 24, 63, 63]);
b= array1d(0..n-1,[-1, -1, 0, 0, 0, 1, 0, 1, 0, 1, 0, 1, 0, 0, 0]);
idx_inf= array1d(0..inf-1,[1, 2, 10, 14, 17, 18, 28, 30, 41, 42]);
